(set-logic QF_LIA)
(declare-fun x0 () Int)
(declare-fun x1 () Int)
(declare-fun x2 () Int)
(declare-fun x3 () Int)
(declare-fun x4 () Int)
(declare-fun x5 () Int)
(declare-fun x6 () Int)
(declare-fun x7 () Int)
(declare-fun x8 () Int)
(declare-fun x9 () Int)
(declare-fun A1 () Bool)
(declare-fun A6 () Bool)
(declare-fun A8 () Bool)
(assert (let ((.def_0 (* (- 1) x2))) (let ((.def_1 (* 1 x0))) (let ((.def_2 (+ .def_1 .def_0))) (let ((.def_3 (< .def_2 (- 1)))) (let ((.def_4 (not .def_3))) (let ((.def_5 (or A8 .def_4))) (let ((.def_6 (not .def_5))) (let ((.def_7 (* 1 x9))) (let ((.def_8 (* (- 1) x0))) (let ((.def_9 (+ .def_8 .def_7))) (let ((.def_10 (< .def_9 1))) (let ((.def_11 (not .def_10))) (let ((.def_12 (* 1 x6))) (let ((.def_13 (* 1 x4))) (let ((.def_14 (+ .def_13 .def_12))) (let ((.def_15 (< .def_14 (- 1)))) (let ((.def_16 (not .def_15))) (let ((.def_17 (or .def_16 .def_11))) (let ((.def_18 (and .def_17 .def_6))) (let ((.def_19 (not .def_18))) (let ((.def_20 (* 1 x7))) (let ((.def_21 (* 1 x1))) (let ((.def_22 (+ .def_21 .def_20))) (let ((.def_23 (< .def_22 1))) (let ((.def_24 (not .def_23))) (let ((.def_25 (or A8 .def_24))) (let ((.def_26 (not .def_25))) (let ((.def_27 (* (- 1) x3))) (let ((.def_28 (< .def_27 (- 1)))) (let ((.def_29 (and .def_28 A8))) (let ((.def_30 (not .def_29))) (let ((.def_31 (or .def_30 .def_26))) (let ((.def_32 (not .def_31))) (let ((.def_33 (and .def_32 .def_19))) (let ((.def_34 (+ .def_27 .def_8))) (let ((.def_35 (< .def_34 (- 1)))) (let ((.def_36 (not .def_35))) (let ((.def_37 (* (- 1) x7))) (let ((.def_38 (+ .def_21 .def_37))) (let ((.def_39 (< .def_38 1))) (let ((.def_40 (or .def_39 .def_36))) (let ((.def_41 (not .def_40))) (let ((.def_42 (and A1 A6))) (let ((.def_43 (and .def_42 .def_41))) (let ((.def_44 (* (- 1) x4))) (let ((.def_45 (+ .def_7 .def_44))) (let ((.def_46 (< .def_45 (- 1)))) (let ((.def_47 (< .def_1 (- 1)))) (let ((.def_48 (not .def_47))) (let ((.def_49 (or .def_48 .def_46))) (let ((.def_50 (< .def_34 1))) (let ((.def_51 (and A6 .def_50))) (let ((.def_52 (and .def_51 .def_49))) (let ((.def_53 (and .def_52 .def_43))) (let ((.def_54 (not .def_53))) (let ((.def_55 (or .def_54 .def_33))) (let ((.def_56 (not .def_55))) (let ((.def_57 (<= x9 1))) (let ((.def_58 (<= 0 x9))) (let ((.def_59 (<= x8 1))) (let ((.def_60 (<= 0 x8))) (let ((.def_61 (<= x7 1))) (let ((.def_62 (<= 0 x7))) (let ((.def_63 (<= x6 1))) (let ((.def_64 (<= 0 x6))) (let ((.def_65 (<= x5 1))) (let ((.def_66 (<= 0 x5))) (let ((.def_67 (<= x4 1))) (let ((.def_68 (<= 0 x4))) (let ((.def_69 (<= x3 1))) (let ((.def_70 (<= 0 x3))) (let ((.def_71 (<= x2 1))) (let ((.def_72 (<= 0 x2))) (let ((.def_73 (<= x1 1))) (let ((.def_74 (<= 0 x1))) (let ((.def_75 (<= x0 1))) (let ((.def_76 (<= 0 x0))) (let ((.def_77 (and .def_76 .def_75 .def_74 .def_73 .def_72 .def_71 .def_70 .def_69 .def_68 .def_67 .def_66 .def_65 .def_64 .def_63 .def_62 .def_61 .def_60 .def_59 .def_58 .def_57 .def_56))) .def_77)))))))))))))))))))))))))))))))))))))))))))))))))))))))))))))))))))))))))))))))
(check-sat)
